p cnf 10 22
10 9 3 0
-10 -9 -3 0
-10 -6 3 0
10 6 -2 0
10 -5 -4 0
-10 5 2 0
9 8 -5 0
-9 4 -2 0
8 -6 3 0
8 -6 -3 0
8 5 2 0
-8 -3 -2 0
8 3 -1 0
-7 -6 1 0
-7 5 3 0
-7 4 3 0
-7 -4 -2 0
-6 5 3 0
6 4 1 0
-6 3 2 0
5 -4 3 0
-5 3 -2 0
